Maximize
  0 x0 + 0 x1 + 0 x2 + 0 x3 + 0 x4 + 0 x5 - 42 x6 + 0 x7 + 0 x8 + 0 x9
   + 0 x10 + 0 x11 + 0 x12 + 34 x13 + 0 x14 + 0 x15 + 0 x16 + 0 x17 + 0 x18
   + 0 x19 + 0 x20 + 0 x21 + 0 x22 - 11 x23 + 0 x24 + 0 x25 + 0 x26 + 0 x27
   - 15 x28 - 31 x29 + 0 x30 + 0 x31 + 0 x32 + 0 x33 + 0 x34 - 36 x35
   + 3 x36 + 11 x37 + 0 x38 + 0 x39 + 0 x40 + 0 x41 + 0 x42 + 0 x43 + 0 x44
   + 0 x45 + 0 x46 + 0 x47 + 0 x48 + 0 x49 + 0 x50 + 0 x51 - 24 x52 + 0 x53
   + 0 x54 + 0 x55 + 0 x56 - 45 x57 + 0 x58 + 0 x59 + [ 54 x0 * x1
   + 46 x0 * x3 + 68 x0 * x4 + 18 x0 * x12 - 16 x0 * x19 + 58 x0 * x20
   + 84 x0 * x42 - 40 x0 * x46 + 38 x0 * x48 - 64 x0 * x58 - 60 x1 * x3
   + 60 x1 * x9 - 8 x1 * x12 + 68 x1 * x13 + 58 x1 * x19 + 40 x1 * x21
   - 50 x1 * x32 + 80 x1 * x36 + 32 x1 * x37 + 80 x1 * x42 - 32 x1 * x46
   - 66 x1 * x48 - 80 x1 * x54 - 2 x1 * x57 - 18 x1 * x59 + 10 x2 ^2
   - 12 x2 * x14 - 24 x2 * x22 - 74 x2 * x29 + 14 x2 * x31 + 70 x2 * x40
   + 22 x2 * x59 - 44 x3 * x6 - 74 x3 * x7 - 72 x3 * x13 - 86 x3 * x16
   + 60 x3 * x17 - 4 x3 * x19 + 26 x3 * x20 - 8 x3 * x21 - 32 x3 * x23
   + 78 x3 * x28 + 66 x3 * x36 - 58 x3 * x40 + 30 x3 * x44 + 50 x3 * x48
   - 98 x3 * x59 - 54 x4 * x5 + 6 x4 * x7 + 58 x4 * x10 - 8 x4 * x11
   + 6 x4 * x13 + 68 x4 * x14 - 72 x4 * x18 - 40 x4 * x19 - 42 x4 * x20
   - 70 x4 * x22 + 60 x4 * x24 - 14 x4 * x25 - 58 x4 * x26 - 48 x4 * x27
   - 6 x4 * x29 - 88 x4 * x31 + 54 x4 * x40 + 74 x4 * x48 + 64 x4 * x52
   - 58 x4 * x54 - 76 x4 * x56 - 62 x4 * x57 - 70 x4 * x58 - 98 x5 * x42
   - 4 x5 * x43 + 4 x5 * x44 + 56 x5 * x46 - 8 x5 * x47 + 42 x5 * x48
   + 10 x6 * x8 + 36 x6 * x11 - 38 x6 * x12 + 10 x6 * x16 - 90 x6 * x17
   + 98 x6 * x18 - 82 x6 * x19 + 34 x6 * x20 - 6 x6 * x26 - 60 x6 * x31
   - 16 x6 * x36 + 78 x6 * x45 + 90 x6 * x46 + 64 x6 * x49 + 40 x6 * x52
   + 86 x6 * x53 + 36 x6 * x54 + 4 x7 * x18 - 46 x7 * x19 + 14 x7 * x30
   - 16 x7 * x39 + 86 x7 * x41 - 44 x7 * x43 + 46 x7 * x45 + 72 x7 * x53
   + 54 x7 * x55 + 22 x7 * x58 + 42 x8 * x11 - 70 x8 * x13 + 44 x8 * x18
   - 10 x8 * x20 + 8 x8 * x24 + 42 x8 * x44 - 34 x8 * x50 + 56 x9 * x12
   - 36 x9 * x15 - 40 x9 * x23 + 64 x9 * x27 - 38 x9 * x42 - 70 x9 * x43
   + 22 x9 * x52 + 14 x10 ^2 + 6 x10 * x14 + 68 x10 * x19 + 24 x10 * x30
   - 32 x10 * x36 + 14 x10 * x42 - 6 x10 * x51 - 26 x11 * x18
   + 36 x11 * x20 - 90 x11 * x24 + 76 x11 * x25 - 70 x11 * x28
   + 22 x11 * x33 + 38 x11 * x34 + 96 x11 * x43 + 18 x11 * x44
   - 14 x11 * x50 - 78 x11 * x56 - 76 x11 * x57 + 16 x12 * x18
   - 76 x12 * x23 - 34 x12 * x30 - 66 x12 * x34 - 94 x12 * x45
   + 20 x12 * x46 - 58 x12 * x49 - 36 x12 * x53 + 10 x12 * x55
   + 6 x12 * x58 + 2 x13 ^2 - 82 x13 * x14 - 98 x13 * x15 - 6 x13 * x18
   + 22 x13 * x19 - 12 x13 * x27 + 68 x13 * x31 - 46 x13 * x35
   - 48 x13 * x39 + 2 x13 * x43 - 38 x13 * x54 - 56 x14 * x19
   + 64 x14 * x21 - 86 x14 * x22 - 44 x14 * x27 + 88 x14 * x28
   - 44 x14 * x56 - 36 x14 * x57 + 19 x15 ^2 - 30 x15 * x44 - 32 x15 * x47
   + 16 x15 * x53 - 36 x15 * x56 - 80 x16 * x21 - 92 x16 * x35
   - 80 x16 * x42 + 88 x16 * x45 + 62 x16 * x47 + 46 x16 * x49
   - 2 x16 * x56 + 90 x17 * x19 - 74 x17 * x31 + 44 x17 * x37
   - 22 x17 * x41 + 32 x17 * x50 + 28 x17 * x54 + 70 x17 * x57
   + 82 x17 * x58 + 12 x18 * x22 - 82 x18 * x30 + 34 x18 * x31
   - 68 x18 * x32 + 44 x18 * x39 + 88 x18 * x40 - 66 x18 * x49
   + 36 x18 * x50 + 88 x19 * x22 + 64 x19 * x26 + 26 x19 * x36
   - 88 x19 * x42 + 78 x19 * x51 - 42 x19 * x55 - 36 x19 * x56
   + 2 x20 * x23 + 28 x20 * x24 + 50 x20 * x40 + 2 x20 * x44 + 40 x20 * x45
   + 56 x20 * x46 + 26 x20 * x49 - 64 x20 * x50 - 98 x20 * x52
   - 32 x21 * x23 - 84 x21 * x25 - 40 x21 * x39 + 62 x21 * x45
   + 72 x21 * x48 - 4 x21 * x52 + 84 x21 * x58 + 78 x22 * x23
   + 54 x22 * x34 + 6 x22 * x37 - 70 x22 * x42 + 52 x22 * x44
   - 30 x22 * x50 + 2 x22 * x53 + 30 x22 * x55 - 50 x23 * x24
   + 26 x23 * x26 - 88 x23 * x27 - 70 x23 * x33 - 54 x23 * x37
   + 16 x23 * x38 + 44 x23 * x40 + 16 x23 * x46 + 58 x23 * x53
   - 74 x23 * x55 - 20 x23 * x56 - 12 x24 * x28 + 72 x24 * x49
   + 4 x24 * x50 + 26 x24 * x58 + 36 x25 * x31 - 50 x25 * x33
   + 68 x25 * x37 + 84 x25 * x41 + 40 x25 * x42 - 12 x25 * x48
   + 94 x25 * x53 + 68 x25 * x55 - 20 x26 ^2 + 6 x26 * x27 - 4 x26 * x28
   + 68 x26 * x34 + 92 x26 * x35 - 4 x26 * x36 + 18 x26 * x43
   + 14 x26 * x49 + 34 x26 * x56 + 26 x26 * x57 + 28 x27 * x30
   - 88 x27 * x34 - 58 x27 * x36 - 28 x27 * x43 - 48 x27 * x47
   + 64 x27 * x49 + 2 x27 * x52 - 66 x27 * x56 + 12 x27 * x59
   + 82 x28 * x30 - 8 x28 * x36 + 56 x28 * x39 + 54 x28 * x46
   + 82 x28 * x50 - 94 x28 * x54 + 84 x28 * x56 + 86 x29 * x31
   + 76 x29 * x34 + 42 x29 * x40 - 32 x29 * x45 + 20 x29 * x46
   + 4 x29 * x49 - 80 x29 * x59 - 34 x30 * x36 - 2 x30 * x42 + 42 x30 * x47
   - 30 x31 * x36 + 14 x31 * x37 - 68 x31 * x43 - 78 x31 * x44
   + 38 x31 * x46 + 48 x31 * x49 + 62 x31 * x56 - 76 x32 * x34
   + 96 x32 * x37 + 10 x32 * x40 - 50 x32 * x44 + 68 x32 * x45
   - 52 x32 * x47 + 36 x33 * x34 - 24 x33 * x39 + 20 x33 * x41
   - 40 x33 * x42 - 42 x34 ^2 + 20 x34 * x52 - 42 x34 * x57 - 68 x34 * x59
   + 18 x35 * x40 + 28 x35 * x43 + 48 x35 * x46 - 8 x35 * x50
   + 96 x35 * x55 - 82 x35 * x57 + 66 x36 * x42 + 78 x36 * x48
   + 84 x36 * x49 - 98 x37 * x42 - 52 x37 * x48 + 62 x37 * x49
   + 78 x38 * x43 + 86 x38 * x45 + 78 x38 * x47 + 12 x38 * x54
   - 54 x38 * x55 + 72 x38 * x57 - 36 x38 * x58 - 10 x39 * x53
   + 18 x39 * x56 - 8 x40 ^2 - 70 x40 * x41 + 4 x40 * x44 - 40 x40 * x48
   + 36 x40 * x50 + 8 x41 * x42 - 44 x41 * x47 - 58 x41 * x53
   - 54 x41 * x54 - 28 x41 * x57 + 64 x42 * x44 - 94 x42 * x45
   - 48 x42 * x56 + 18 x42 * x58 + 58 x43 * x47 + 22 x43 * x51
   - 48 x44 * x48 - 74 x44 * x56 - 56 x44 * x57 + 10 x45 ^2 - 20 x45 * x47
   - 44 x45 * x58 + 44 x46 ^2 + 62 x46 * x52 - 46 x46 * x57 + 70 x47 * x49
   - 46 x47 * x58 - 47 x48 ^2 - 88 x48 * x52 - 98 x49 * x53 - 64 x49 * x54
   - 54 x49 * x58 - 80 x50 * x57 + 44 x51 ^2 - 52 x52 * x56 + 70 x52 * x59
   + 18 x53 * x54 - 74 x55 * x56 - 25 x59 ^2 ] / 2 
Subject To
Bounds
 x0 <= 1
 x1 <= 1
 x2 <= 1
 x3 <= 1
 x4 <= 1
 x5 <= 1
 x6 <= 1
 x7 <= 1
 x8 <= 1
 x9 <= 1
 x10 <= 1
 x11 <= 1
 x12 <= 1
 x13 <= 1
 x14 <= 1
 x15 <= 1
 x16 <= 1
 x17 <= 1
 x18 <= 1
 x19 <= 1
 x20 <= 1
 x21 <= 1
 x22 <= 1
 x23 <= 1
 x24 <= 1
 x25 <= 1
 x26 <= 1
 x27 <= 1
 x28 <= 1
 x29 <= 1
 x30 <= 1
 x31 <= 1
 x32 <= 1
 x33 <= 1
 x34 <= 1
 x35 <= 1
 x36 <= 1
 x37 <= 1
 x38 <= 1
 x39 <= 1
 x40 <= 1
 x41 <= 1
 x42 <= 1
 x43 <= 1
 x44 <= 1
 x45 <= 1
 x46 <= 1
 x47 <= 1
 x48 <= 1
 x49 <= 1
 x50 <= 1
 x51 <= 1
 x52 <= 1
 x53 <= 1
 x54 <= 1
 x55 <= 1
 x56 <= 1
 x57 <= 1
 x58 <= 1
 x59 <= 1
End
